
  22    0


   0  13 2 3 4 7 8 9 15 16 17 18 19 20 21 
  10   3 13 12 5 
   6   4 14 12 11 10 
   9   3 12 10 6 
   4   2 11 10 
   8   1 11 
   7   1 13 
   3   1 12 
   4   1 10 
   9   1 22
  10   1 22
  10   1 22
   7   1 22
   4   1 22
   4   1 22
   1   1 22
  10   1 22
   9   1 22
   4   1 22
   9   1 22
   2   1 22
   0   0 
